50 10121
517 417
1034 834
2068 1668
1034 834
165 65
330 130
495 195
176 76
232 132
464 264
928 528
464 264
472 372
944 744
456 356
912 712
232 132
464 264
696 396
139 39
297 197
461 361
922 722
461 361
231 131
462 262
924 524
437 337
874 674
437 337
365 265
365 265
258 158
258 158
304 204
608 408
1216 816
912 612
300 200
600 400
220 120
440 240
660 360
303 203
606 406
606 406
303 203
606 406
909 609
522 422
